Grasp exp. instance_n_15_m_5_id_4.lp tipoLifted 0 szPool 5 nIteration 20 alpha 1 
Academic license - for non-commercial use only
Read LP format model from file ../input/instancesGenerated/instance_n_15_m_5_id_4.lp
Reading time = 0.00 seconds
: 5 rows, 15 columns, 75 nonzeros
Optimize a model with 5 rows, 15 columns and 75 nonzeros
Variable types: 0 continuous, 15 integer (15 binary)
Coefficient statistics:
  Matrix range     [1e+00, 1e+01]
  Objective range  [1e+00, 1e+01]
  Bounds range     [1e+00, 1e+00]
  RHS range        [3e+01, 4e+01]
Found heuristic solution: objective 41.0000000

Explored 0 nodes (0 simplex iterations) in 0.00 seconds
Thread count was 1 (of 8 available processors)

Solution count 1: 41 
No other solutions better than 0

Solution limit reached
Best objective 4.100000000000e+01, best bound -, gap -
C_1:	 7.00 x_1  = 0.769921 + 4.00 x_2  = 0.000000 + 7.00 x_3  = 0.000000 + 3.00 x_4  = 0.825006 + 1.00 x_5  = 0.000000 + 3.00 x_6  = 1.000000 + 3.00 x_7  = 1.000000 + 9.00 x_8  = 0.000000 + 2.00 x_9  = 0.169101 + 2.00 x_10  = 1.000000 + 10.00 x_11  = 0.000000 + 2.00 x_12  = 0.404817 + 5.00 x_13  = 1.000000 + 6.00 x_14  = 1.000000 + 5.00 x_15  = 1.000000 <= 34.00
C_2:	 6.00 x_1  = 0.769921 + 3.00 x_2  = 0.000000 + 3.00 x_3  = 0.000000 + 3.00 x_4  = 0.825006 + 2.00 x_5  = 0.000000 + 5.00 x_6  = 1.000000 + 3.00 x_7  = 1.000000 + 6.00 x_8  = 0.000000 + 10.00 x_9  = 0.169101 + 4.00 x_10  = 1.000000 + 2.00 x_11  = 0.000000 + 3.00 x_12  = 0.404817 + 2.00 x_13  = 1.000000 + 2.00 x_14  = 1.000000 + 1.00 x_15  = 1.000000 <= 27.00
C_3:	 9.00 x_1  = 0.769921 + 8.00 x_2  = 0.000000 + 6.00 x_3  = 0.000000 + 7.00 x_4  = 0.825006 + 1.00 x_5  = 0.000000 + 6.00 x_6  = 1.000000 + 1.00 x_7  = 1.000000 + 5.00 x_8  = 0.000000 + 4.00 x_9  = 0.169101 + 4.00 x_10  = 1.000000 + 6.00 x_11  = 0.000000 + 4.00 x_12  = 0.404817 + 5.00 x_13  = 1.000000 + 3.00 x_14  = 1.000000 + 1.00 x_15  = 1.000000 <= 35.00
C_4:	 2.00 x_1  = 0.769921 + 8.00 x_2  = 0.000000 + 6.00 x_3  = 0.000000 + 6.00 x_4  = 0.825006 + 2.00 x_5  = 0.000000 + 7.00 x_6  = 1.000000 + 2.00 x_7  = 1.000000 + 4.00 x_8  = 0.000000 + 4.00 x_9  = 0.169101 + 1.00 x_10  = 1.000000 + 8.00 x_11  = 0.000000 + 7.00 x_12  = 0.404817 + 6.00 x_13  = 1.000000 + 1.00 x_14  = 1.000000 + 9.00 x_15  = 1.000000 <= 36.00
C_5:	 6.00 x_1  = 0.769921 + 9.00 x_2  = 0.000000 + 6.00 x_3  = 0.000000 + 1.00 x_4  = 0.825006 + 7.00 x_5  = 0.000000 + 8.00 x_6  = 1.000000 + 6.00 x_7  = 1.000000 + 8.00 x_8  = 0.000000 + 3.00 x_9  = 0.169101 + 1.00 x_10  = 1.000000 + 1.00 x_11  = 0.000000 + 10.00 x_12  = 0.404817 + 6.00 x_13  = 1.000000 + 8.00 x_14  = 1.000000 + 2.00 x_15  = 1.000000 <= 41.00
Solution initial: 59.863951 
Number Constraints Used in Cover:5
GRASP Method!
Number cuts repeat: 0
value: 59.863951
Number Constraints Used in Cover:9
GRASP Method!
Number cuts repeat: 0
value: 59.863951
Number Constraints Used in Cover:17
GRASP Method!
Number cuts repeat: 0
value: 59.863951
Number Constraints Used in Cover:19
GRASP Method!
Number cuts repeat: 0
value: 59.863951
Number Constraints Used in Cover:22
GRASP Method!
Number cuts repeat: 0
value: 59.863951
Number Constraints Used in Cover:25
GRASP Method!
Number cuts repeat: 0
value: 59.863951
Number Constraints Used in Cover:27
GRASP Method!
Number cuts repeat: 0
value: 59.863951
Number Constraints Used in Cover:29
GRASP Method!
Number cuts repeat: 0
value: 59.863951
Number Constraints Used in Cover:35
GRASP Method!
Number cuts repeat: 0
value: 59.863951
Number Constraints Used in Cover:43
GRASP Method!
Number cuts repeat: 0
value: 59.863951
Number Constraints Used in Cover:46
GRASP Method!
Number cuts repeat: 0
value: 59.863951
Number Constraints Used in Cover:47
GRASP Method!
Number cuts repeat: 0
value: 59.863951
Number Constraints Used in Cover:53
GRASP Method!
Number cuts repeat: 0
value: 59.863951
Number Constraints Used in Cover:56
GRASP Method!
Number cuts repeat: 0
value: 59.863951
Number Constraints Used in Cover:62
GRASP Method!
Number cuts repeat: 0
value: 59.863951
Number Constraints Used in Cover:67
GRASP Method!
Number cuts repeat: 0
value: 59.863951
Number Constraints Used in Cover:73
GRASP Method!
Number cuts repeat: 0
value: 59.863951
Number Constraints Used in Cover:77
GRASP Method!
Number cuts repeat: 0
value: 59.863951
Number Constraints Used in Cover:81
GRASP Method!
Number cuts repeat: 0
value: 59.863951
Number Constraints Used in Cover:85
GRASP Method!
Number cuts repeat: 0
value: 59.863951
Number Constraints Used in Cover:89
GRASP Method!
Number cuts repeat: 0
value: 59.863951
Number Constraints Used in Cover:93
GRASP Method!
Number cuts repeat: 0
value: 59.863951
Number Constraints Used in Cover:96
GRASP Method!
Number cuts repeat: 0
value: 59.863951
Number Constraints Used in Cover:98
GRASP Method!
Number cuts repeat: 0
value: 59.863951
Number Constraints Used in Cover:102
GRASP Method!
Number cuts repeat: 0
value: 59.863951
Number Constraints Used in Cover:110
GRASP Method!
Number cuts repeat: 0
value: 59.863951
Number Constraints Used in Cover:116
GRASP Method!
Number cuts repeat: 0
value: 59.863951
Number Constraints Used in Cover:120
GRASP Method!
Number cuts repeat: 0
value: 59.863951
Number Constraints Used in Cover:128
GRASP Method!
Number cuts repeat: 0
value: 59.863951
Number Constraints Used in Cover:130
GRASP Method!
Number cuts repeat: 0
value: 59.863951
Number Constraints Used in Cover:136
GRASP Method!
Number cuts repeat: 0
value: 59.863951
Number Constraints Used in Cover:142
GRASP Method!
Number cuts repeat: 0
value: 59.863951
Number Constraints Used in Cover:149
GRASP Method!
Number cuts repeat: 0
value: 59.863951
Number Constraints Used in Cover:156
GRASP Method!
Number cuts repeat: 0
value: 59.863951
Number Constraints Used in Cover:164
GRASP Method!
Number cuts repeat: 0
value: 59.863951
Number Constraints Used in Cover:171
GRASP Method!
Number cuts repeat: 0
value: 59.863951
Number Constraints Used in Cover:178
GRASP Method!
Number cuts repeat: 0
value: 59.863951
Number Constraints Used in Cover:186
GRASP Method!
Number cuts repeat: 0
value: 59.863951
Number Constraints Used in Cover:191
GRASP Method!
Number cuts repeat: 0
value: 59.863951
Number Constraints Used in Cover:200
GRASP Method!
Number cuts repeat: 0
value: 59.863951
Number Constraints Used in Cover:207
GRASP Method!
Number cuts repeat: 0
value: 59.863951
Number Constraints Used in Cover:212
GRASP Method!
Number cuts repeat: 0
value: 59.863951
Number Constraints Used in Cover:216
GRASP Method!
Number cuts repeat: 0
value: 59.863951
Number Constraints Used in Cover:221
GRASP Method!
Number cuts repeat: 0
value: 59.863951
Number Constraints Used in Cover:230
GRASP Method!
Number cuts repeat: 0
value: 59.863951
Number Constraints Used in Cover:236
GRASP Method!
Number cuts repeat: 0
value: 59.863951
Number Constraints Used in Cover:242
GRASP Method!
Number cuts repeat: 0
value: 59.863951
Number Constraints Used in Cover:245
GRASP Method!
Number cuts repeat: 0
value: 59.863951
Number Constraints Used in Cover:249
GRASP Method!
Number cuts repeat: 0
value: 59.863951
Number Constraints Used in Cover:254
GRASP Method!
Number cuts repeat: 0
value: 59.863951
Number Constraints Used in Cover:260
GRASP Method!
Number cuts repeat: 0
value: 59.863951
Number Constraints Used in Cover:268
GRASP Method!
Number cuts repeat: 0
value: 59.863951
Number Constraints Used in Cover:271
GRASP Method!
Number cuts repeat: 0
value: 59.863951
Number Constraints Used in Cover:275
GRASP Method!
Number cuts repeat: 0
value: 59.863951
Number Constraints Used in Cover:279
GRASP Method!
Number cuts repeat: 0
value: 59.863951
Number Constraints Used in Cover:282
GRASP Method!
Number cuts repeat: 0
value: 59.863951
Number Constraints Used in Cover:284
GRASP Method!
Number cuts repeat: 0
value: 59.863951
Number Constraints Used in Cover:287
GRASP Method!
Number cuts repeat: 0
value: 59.863951
Number Constraints Used in Cover:292
GRASP Method!
Number cuts repeat: 0
value: 59.863951
Number Constraints Used in Cover:294
GRASP Method!
Number cuts repeat: 0
value: 59.863951
Number Constraints Used in Cover:297
GRASP Method!
Number cuts repeat: 0
value: 59.863951
Number Constraints Used in Cover:303
GRASP Method!
Number cuts repeat: 0
value: 59.863951
Number Constraints Used in Cover:306
GRASP Method!
Number cuts repeat: 0
value: 59.863951
Number Constraints Used in Cover:309
GRASP Method!
Number cuts repeat: 0
value: 59.863951
Number Constraints Used in Cover:312
GRASP Method!
Number cuts repeat: 0
value: 59.863951
Number Constraints Used in Cover:314
GRASP Method!
Number cuts repeat: 0
value: 59.863951
Number Constraints Used in Cover:317
GRASP Method!
Number cuts repeat: 0
value: 59.863951
Number Constraints Used in Cover:320
GRASP Method!
Number cuts repeat: 0
value: 59.863951
Number Constraints Used in Cover:322
GRASP Method!
Number cuts repeat: 0
value: 59.863951
Number Constraints Used in Cover:325
GRASP Method!
Number cuts repeat: 0
value: 59.863951
Number Constraints Used in Cover:325
GRASP Method!
Number cuts repeat: 0
value: 59.863951
Number Constraints Used in Cover:326
GRASP Method!
Number cuts repeat: 0
value: 59.863951
Number Constraints Used in Cover:332
GRASP Method!
Number cuts repeat: 0
value: 59.863951
Number Constraints Used in Cover:336
GRASP Method!
Number cuts repeat: 0
value: 59.863951
Number Constraints Used in Cover:341
GRASP Method!
Number cuts repeat: 0
value: 59.863951
Number Constraints Used in Cover:350
GRASP Method!
Number cuts repeat: 0
value: 59.863951
Number Constraints Used in Cover:353
GRASP Method!
Number cuts repeat: 0
value: 59.863951
Number Constraints Used in Cover:358
GRASP Method!
Number cuts repeat: 0
value: 59.863951
Number Constraints Used in Cover:362
GRASP Method!
Number cuts repeat: 0
value: 59.863951
Number Constraints Used in Cover:368
GRASP Method!
Number cuts repeat: 0
value: 59.631841
Number Constraints Used in Cover:370
GRASP Method!
Number cuts repeat: 0
value: 59.631841
Number Constraints Used in Cover:378
GRASP Method!
Number cuts repeat: 0
value: 59.631841
Number Constraints Used in Cover:381
GRASP Method!
Number cuts repeat: 0
value: 59.631841
Number Constraints Used in Cover:383
GRASP Method!
Number cuts repeat: 0
value: 59.631841
Number Constraints Used in Cover:389
GRASP Method!
Number cuts repeat: 0
value: 59.631841
Number Constraints Used in Cover:393
GRASP Method!
Number cuts repeat: 0
value: 59.631841
Number Constraints Used in Cover:395
GRASP Method!
Number cuts repeat: 0
value: 59.631841
Number Constraints Used in Cover:397
GRASP Method!
Number cuts repeat: 0
value: 59.631841
Number Constraints Used in Cover:400
GRASP Method!
Number cuts repeat: 0
value: 59.631841
Number Constraints Used in Cover:402
GRASP Method!
Number cuts repeat: 0
value: 59.631841
Number Constraints Used in Cover:410
GRASP Method!
Number cuts repeat: 0
value: 59.631841
Number Constraints Used in Cover:414
GRASP Method!
Number cuts repeat: 0
value: 59.631841
Number Constraints Used in Cover:416
GRASP Method!
Number cuts repeat: 0
value: 59.631841
Number Constraints Used in Cover:420
GRASP Method!
Number cuts repeat: 0
value: 59.631841
Number Constraints Used in Cover:422
GRASP Method!
Number cuts repeat: 0
value: 59.631841
Number Constraints Used in Cover:426
GRASP Method!
Number cuts repeat: 0
value: 59.631841
Number Constraints Used in Cover:428
GRASP Method!
Number cuts repeat: 0
value: 59.631841
Number Constraints Used in Cover:433
GRASP Method!
Number cuts repeat: 0
value: 59.631841
Number Constraints Used in Cover:437
GRASP Method!
Number cuts repeat: 0
value: 59.631841
Number Constraints Used in Cover:442
GRASP Method!
Number cuts repeat: 0
value: 59.631841
Number Constraints Used in Cover:449
GRASP Method!
Number cuts repeat: 0
value: 59.631841
Number Constraints Used in Cover:454
GRASP Method!
Number cuts repeat: 0
value: 59.631841
Number Constraints Used in Cover:459
GRASP Method!
Number cuts repeat: 0
value: 59.631841
Number Constraints Used in Cover:460
GRASP Method!
Number cuts repeat: 0
value: 59.631841
Number Constraints Used in Cover:465
GRASP Method!
Number cuts repeat: 0
value: 59.631841
Number Constraints Used in Cover:470
GRASP Method!
Number cuts repeat: 0
value: 59.631841
Number Constraints Used in Cover:472
GRASP Method!
Number cuts repeat: 0
value: 59.631841
Number Constraints Used in Cover:476
GRASP Method!
Number cuts repeat: 0
value: 59.631841
Number Constraints Used in Cover:482
GRASP Method!
Number cuts repeat: 0
value: 59.631841
Number Constraints Used in Cover:489
GRASP Method!
Number cuts repeat: 0
value: 59.631841
Number Constraints Used in Cover:491
GRASP Method!
Number cuts repeat: 0
value: 59.631841
Number Constraints Used in Cover:498
GRASP Method!
Number cuts repeat: 0
value: 59.631841
Number Constraints Used in Cover:501
GRASP Method!
Number cuts repeat: 0
value: 59.631841
Number Constraints Used in Cover:506
GRASP Method!
Number cuts repeat: 0
value: 59.631841
Number Constraints Used in Cover:513
GRASP Method!
Number cuts repeat: 0
value: 59.631841
Number Constraints Used in Cover:518
GRASP Method!
Number cuts repeat: 0
value: 59.631841
Number Constraints Used in Cover:524
GRASP Method!
Number cuts repeat: 0
value: 59.631841
Number Constraints Used in Cover:527
GRASP Method!
Number cuts repeat: 0
value: 59.631841
Number Constraints Used in Cover:529
GRASP Method!
Number cuts repeat: 0
value: 59.631841
Number Constraints Used in Cover:532
GRASP Method!
Number cuts repeat: 0
value: 59.631841
Number Constraints Used in Cover:537
GRASP Method!
Number cuts repeat: 0
value: 59.631841
Number Constraints Used in Cover:541
GRASP Method!
Number cuts repeat: 0
value: 59.631841
Number Constraints Used in Cover:545
GRASP Method!
Number cuts repeat: 0
value: 59.631841
Number Constraints Used in Cover:549
GRASP Method!
Number cuts repeat: 0
value: 59.631841
Number Constraints Used in Cover:551
GRASP Method!
Number cuts repeat: 0
value: 59.631841
Number Constraints Used in Cover:555
GRASP Method!
Number cuts repeat: 0
value: 59.631841
Number Constraints Used in Cover:556
GRASP Method!
Number cuts repeat: 0
value: 59.631841
Number Constraints Used in Cover:557
GRASP Method!
Number cuts repeat: 0
value: 59.631841
Number Constraints Used in Cover:562
GRASP Method!
Number cuts repeat: 0
value: 59.631841
Number Constraints Used in Cover:564
GRASP Method!
Number cuts repeat: 0
value: 59.631841
Number Constraints Used in Cover:569
GRASP Method!
Number cuts repeat: 0
value: 59.631841
Number Constraints Used in Cover:572
GRASP Method!
Number cuts repeat: 0
value: 59.631841
Number Constraints Used in Cover:574
GRASP Method!
Number cuts repeat: 0
value: 59.631841
Number Constraints Used in Cover:577
GRASP Method!
Number cuts repeat: 0
value: 59.631841
Number Constraints Used in Cover:580
GRASP Method!
Number cuts repeat: 0
value: 59.631841
Number Constraints Used in Cover:583
GRASP Method!
Number cuts repeat: 0
value: 59.631841
Number Constraints Used in Cover:587
GRASP Method!
Number cuts repeat: 0
value: 59.631841
Number Constraints Used in Cover:590
GRASP Method!
Number cuts repeat: 0
value: 59.631841
Number Constraints Used in Cover:594
GRASP Method!
Number cuts repeat: 0
value: 59.631841
Number Constraints Used in Cover:594
GRASP Method!
Number cuts repeat: 0
value: 59.631841
Number Constraints Used in Cover:600
GRASP Method!
Number cuts repeat: 0
value: 59.631841
Number Constraints Used in Cover:604
GRASP Method!
Number cuts repeat: 0
value: 59.631841
Number Constraints Used in Cover:607
GRASP Method!
Number cuts repeat: 0
value: 59.631841
Number Constraints Used in Cover:609
GRASP Method!
Number cuts repeat: 0
value: 59.631841
Number Constraints Used in Cover:613
GRASP Method!
Number cuts repeat: 0
value: 59.631841
Number Constraints Used in Cover:617
GRASP Method!
Number cuts repeat: 0
value: 59.631841
Number Constraints Used in Cover:623
GRASP Method!
Number cuts repeat: 0
value: 59.631841
Number Constraints Used in Cover:629
GRASP Method!
Number cuts repeat: 0
value: 59.631841
Number Constraints Used in Cover:636
GRASP Method!
Number cuts repeat: 0
value: 59.631841
Number Constraints Used in Cover:637
GRASP Method!
Number cuts repeat: 0
value: 59.631841
Number Constraints Used in Cover:642
GRASP Method!
Number cuts repeat: 0
value: 59.631841
Number Constraints Used in Cover:645
GRASP Method!
Number cuts repeat: 0
value: 59.631841
Number Constraints Used in Cover:649
GRASP Method!
Number cuts repeat: 0
value: 59.631841
Number Constraints Used in Cover:652
GRASP Method!
Number cuts repeat: 0
value: 59.631841
Number Constraints Used in Cover:653
GRASP Method!
Number cuts repeat: 0
value: 59.631841
Number Constraints Used in Cover:662
GRASP Method!
Number cuts repeat: 0
value: 59.631841
Number Constraints Used in Cover:665
GRASP Method!
Number cuts repeat: 0
value: 59.631841
Number Constraints Used in Cover:669
GRASP Method!
Number cuts repeat: 0
value: 59.631841
Number Constraints Used in Cover:673
GRASP Method!
Number cuts repeat: 0
value: 59.631841
Number Constraints Used in Cover:680
GRASP Method!
Number cuts repeat: 0
value: 59.631841
Number Cuts Final: 680
